NAME : Adapted from COL file rg10.col
COMMENT : 
TYPE : HCP
DIMENSION : 1086
EDGE_DATA_FORMAT : EDGE_LIST
EDGE_DATA_SECTION
1 2
1 1086
2 1
2 3
3 2
3 4
4 3
4 5
5 4
5 6
6 5
6 7
6 193
7 6
7 8
7 309
8 7
8 9
9 8
9 10
10 9
10 11
11 10
11 12
12 11
12 13
12 373
13 12
13 14
13 489
14 13
14 15
15 14
15 16
16 15
16 17
17 16
17 18
18 17
18 19
18 553
19 18
19 20
19 669
20 19
20 21
21 20
21 22
22 21
22 23
23 22
23 24
24 23
24 25
24 220
25 24
25 26
25 729
26 25
26 27
27 26
27 28
28 27
28 29
29 28
29 30
30 29
30 31
30 580
31 30
31 32
31 849
32 31
32 33
33 32
33 34
34 33
34 35
35 34
35 36
36 35
36 37
36 280
37 36
37 38
37 909
38 37
38 39
39 38
39 40
40 39
40 41
41 40
41 42
42 41
42 43
42 460
43 42
43 44
43 969
44 43
44 45
45 44
45 46
46 45
46 47
47 46
47 48
48 47
48 49
48 340
49 48
49 50
49 876
50 49
50 51
51 50
51 52
52 51
52 53
53 52
53 54
54 53
54 55
54 640
55 54
55 56
55 1029
56 55
56 57
57 56
57 58
58 57
58 59
59 58
59 60
60 59
60 61
60 700
61 60
61 62
61 1056
62 61
62 63
63 62
63 64
64 63
64 65
65 64
65 66
66 65
66 67
66 202
67 66
67 68
67 318
68 67
68 69
69 68
69 70
70 69
70 71
71 70
71 72
72 71
72 73
72 382
73 72
73 74
73 498
74 73
74 75
75 74
75 76
76 75
76 77
77 76
77 78
78 77
78 79
78 562
79 78
79 80
79 678
80 79
80 81
81 80
81 82
82 81
82 83
83 82
83 84
84 83
84 85
84 229
85 84
85 86
85 738
86 85
86 87
87 86
87 88
88 87
88 89
89 88
89 90
90 89
90 91
90 589
91 90
91 92
91 858
92 91
92 93
93 92
93 94
94 93
94 95
95 94
95 96
96 95
96 97
96 289
97 96
97 98
97 918
98 97
98 99
99 98
99 100
100 99
100 101
101 100
101 102
102 101
102 103
102 469
103 102
103 104
103 978
104 103
104 105
105 104
105 106
106 105
106 107
107 106
107 108
108 107
108 109
108 349
109 108
109 110
109 885
110 109
110 111
111 110
111 112
112 111
112 113
113 112
113 114
114 113
114 115
114 649
115 114
115 116
115 1038
116 115
116 117
117 116
117 118
118 117
118 119
119 118
119 120
120 119
120 121
120 709
121 120
121 122
121 1065
122 121
122 123
123 122
123 124
124 123
124 125
125 124
125 126
126 125
126 127
126 211
127 126
127 128
127 327
128 127
128 129
129 128
129 130
130 129
130 131
131 130
131 132
132 131
132 133
132 391
133 132
133 134
133 507
134 133
134 135
135 134
135 136
136 135
136 137
137 136
137 138
138 137
138 139
138 571
139 138
139 140
139 687
140 139
140 141
141 140
141 142
142 141
142 143
143 142
143 144
144 143
144 145
144 238
145 144
145 146
145 747
146 145
146 147
147 146
147 148
148 147
148 149
149 148
149 150
150 149
150 151
150 598
151 150
151 152
151 867
152 151
152 153
153 152
153 154
154 153
154 155
155 154
155 156
156 155
156 157
156 298
157 156
157 158
157 927
158 157
158 159
159 158
159 160
160 159
160 161
161 160
161 162
162 161
162 163
162 478
163 162
163 164
163 987
164 163
164 165
165 164
165 166
166 165
166 167
167 166
167 168
168 167
168 169
168 358
169 168
169 170
169 894
170 169
170 171
171 170
171 172
172 171
172 173
173 172
173 174
174 173
174 175
174 658
175 174
175 176
175 1047
176 175
176 177
177 176
177 178
178 177
178 179
179 178
179 180
180 179
180 181
180 718
181 180
181 182
181 1074
182 181
182 183
183 182
183 184
184 183
184 185
185 184
185 186
186 185
186 187
186 196
186 205
187 186
187 188
187 192
188 187
188 189
189 188
189 190
189 253
190 189
190 191
190 195
191 190
191 192
192 187
192 191
192 193
193 6
193 192
193 194
194 193
194 195
195 190
195 194
195 223
195 232
196 186
196 197
196 201
197 196
197 198
198 197
198 199
198 262
199 198
199 200
199 204
200 199
200 201
201 196
201 200
201 202
202 66
202 201
202 203
203 202
203 204
204 199
204 203
204 214
204 232
205 186
205 206
205 210
206 205
206 207
207 206
207 208
207 271
208 207
208 209
208 213
209 208
209 210
210 205
210 209
210 211
211 126
211 210
211 212
212 211
212 213
213 208
213 212
213 214
213 223
214 204
214 213
214 215
214 219
215 214
215 216
216 215
216 217
216 400
217 216
217 218
217 222
218 217
218 219
219 214
219 218
219 220
220 24
220 219
220 221
221 220
221 222
222 217
222 221
222 241
223 195
223 213
223 224
223 228
224 223
224 225
225 224
225 226
225 409
226 225
226 227
226 231
227 226
227 228
228 223
228 227
228 229
229 84
229 228
229 230
230 229
230 231
231 226
231 230
231 241
232 195
232 204
232 233
232 237
233 232
233 234
234 233
234 235
234 418
235 234
235 236
235 240
236 235
236 237
237 232
237 236
237 238
238 144
238 237
238 239
239 238
239 240
240 235
240 239
240 241
241 222
241 231
241 240
241 242
242 241
242 243
243 242
243 244
244 243
244 245
245 244
245 246
246 245
246 247
246 256
246 265
247 246
247 248
247 252
248 247
248 249
249 248
249 250
249 313
250 249
250 251
250 255
251 250
251 252
252 247
252 251
252 253
253 189
253 252
253 254
254 253
254 255
255 250
255 254
255 283
255 292
256 246
256 257
256 261
257 256
257 258
258 257
258 259
258 322
259 258
259 260
259 264
260 259
260 261
261 256
261 260
261 262
262 198
262 261
262 263
263 262
263 264
264 259
264 263
264 274
264 292
265 246
265 266
265 270
266 265
266 267
267 266
267 268
267 331
268 267
268 269
268 273
269 268
269 270
270 265
270 269
270 271
271 207
271 270
271 272
272 271
272 273
273 268
273 272
273 274
273 283
274 264
274 273
274 275
274 279
275 274
275 276
276 275
276 277
276 820
277 276
277 278
277 282
278 277
278 279
279 274
279 278
279 280
280 36
280 279
280 281
281 280
281 282
282 277
282 281
282 301
283 255
283 273
283 284
283 288
284 283
284 285
285 284
285 286
285 829
286 285
286 287
286 291
287 286
287 288
288 283
288 287
288 289
289 96
289 288
289 290
290 289
290 291
291 286
291 290
291 301
292 255
292 264
292 293
292 297
293 292
293 294
294 293
294 295
294 838
295 294
295 296
295 300
296 295
296 297
297 292
297 296
297 298
298 156
298 297
298 299
299 298
299 300
300 295
300 299
300 301
301 282
301 291
301 300
301 302
302 301
302 303
303 302
303 304
304 303
304 305
305 304
305 306
306 305
306 307
306 316
306 325
307 306
307 308
307 312
308 307
308 309
309 7
309 308
309 310
310 309
310 311
310 315
311 310
311 312
312 307
312 311
312 313
313 249
313 312
313 314
314 313
314 315
315 310
315 314
315 343
315 352
316 306
316 317
316 321
317 316
317 318
318 67
318 317
318 319
319 318
319 320
319 324
320 319
320 321
321 316
321 320
321 322
322 258
322 321
322 323
323 322
323 324
324 319
324 323
324 334
324 352
325 306
325 326
325 330
326 325
326 327
327 127
327 326
327 328
328 327
328 329
328 333
329 328
329 330
330 325
330 329
330 331
331 267
331 330
331 332
332 331
332 333
333 328
333 332
333 334
333 343
334 324
334 333
334 335
334 339
335 334
335 336
336 335
336 337
336 520
337 336
337 338
337 342
338 337
338 339
339 334
339 338
339 340
340 48
340 339
340 341
341 340
341 342
342 337
342 341
342 361
343 315
343 333
343 344
343 348
344 343
344 345
345 344
345 346
345 529
346 345
346 347
346 351
347 346
347 348
348 343
348 347
348 349
349 108
349 348
349 350
350 349
350 351
351 346
351 350
351 361
352 315
352 324
352 353
352 357
353 352
353 354
354 353
354 355
354 538
355 354
355 356
355 360
356 355
356 357
357 352
357 356
357 358
358 168
358 357
358 359
359 358
359 360
360 355
360 359
360 361
361 342
361 351
361 360
361 362
362 361
362 363
363 362
363 364
364 363
364 365
365 364
365 366
366 365
366 367
366 376
366 385
367 366
367 368
367 372
368 367
368 369
369 368
369 370
369 433
370 369
370 371
370 375
371 370
371 372
372 367
372 371
372 373
373 12
373 372
373 374
374 373
374 375
375 370
375 374
375 403
375 412
376 366
376 377
376 381
377 376
377 378
378 377
378 379
378 442
379 378
379 380
379 384
380 379
380 381
381 376
381 380
381 382
382 72
382 381
382 383
383 382
383 384
384 379
384 383
384 394
384 412
385 366
385 386
385 390
386 385
386 387
387 386
387 388
387 451
388 387
388 389
388 393
389 388
389 390
390 385
390 389
390 391
391 132
391 390
391 392
392 391
392 393
393 388
393 392
393 394
393 403
394 384
394 393
394 395
394 399
395 394
395 396
396 395
396 397
396 733
397 396
397 398
397 402
398 397
398 399
399 394
399 398
399 400
400 216
400 399
400 401
401 400
401 402
402 397
402 401
402 421
403 375
403 393
403 404
403 408
404 403
404 405
405 404
405 406
405 742
406 405
406 407
406 411
407 406
407 408
408 403
408 407
408 409
409 225
409 408
409 410
410 409
410 411
411 406
411 410
411 421
412 375
412 384
412 413
412 417
413 412
413 414
414 413
414 415
414 751
415 414
415 416
415 420
416 415
416 417
417 412
417 416
417 418
418 234
418 417
418 419
419 418
419 420
420 415
420 419
420 421
421 402
421 411
421 420
421 422
422 421
422 423
423 422
423 424
424 423
424 425
425 424
425 426
426 425
426 427
426 436
426 445
427 426
427 428
427 432
428 427
428 429
429 428
429 430
429 493
430 429
430 431
430 435
431 430
431 432
432 427
432 431
432 433
433 369
433 432
433 434
434 433
434 435
435 430
435 434
435 463
435 472
436 426
436 437
436 441
437 436
437 438
438 437
438 439
438 502
439 438
439 440
439 444
440 439
440 441
441 436
441 440
441 442
442 378
442 441
442 443
443 442
443 444
444 439
444 443
444 454
444 472
445 426
445 446
445 450
446 445
446 447
447 446
447 448
447 511
448 447
448 449
448 453
449 448
449 450
450 445
450 449
450 451
451 387
451 450
451 452
452 451
452 453
453 448
453 452
453 454
453 463
454 444
454 453
454 455
454 459
455 454
455 456
456 455
456 457
456 760
457 456
457 458
457 462
458 457
458 459
459 454
459 458
459 460
460 42
460 459
460 461
461 460
461 462
462 457
462 461
462 481
463 435
463 453
463 464
463 468
464 463
464 465
465 464
465 466
465 769
466 465
466 467
466 471
467 466
467 468
468 463
468 467
468 469
469 102
469 468
469 470
470 469
470 471
471 466
471 470
471 481
472 435
472 444
472 473
472 477
473 472
473 474
474 473
474 475
474 778
475 474
475 476
475 480
476 475
476 477
477 472
477 476
477 478
478 162
478 477
478 479
479 478
479 480
480 475
480 479
480 481
481 462
481 471
481 480
481 482
482 481
482 483
483 482
483 484
484 483
484 485
485 484
485 486
486 485
486 487
486 496
486 505
487 486
487 488
487 492
488 487
488 489
489 13
489 488
489 490
490 489
490 491
490 495
491 490
491 492
492 487
492 491
492 493
493 429
493 492
493 494
494 493
494 495
495 490
495 494
495 523
495 532
496 486
496 497
496 501
497 496
497 498
498 73
498 497
498 499
499 498
499 500
499 504
500 499
500 501
501 496
501 500
501 502
502 438
502 501
502 503
503 502
503 504
504 499
504 503
504 514
504 532
505 486
505 506
505 510
506 505
506 507
507 133
507 506
507 508
508 507
508 509
508 513
509 508
509 510
510 505
510 509
510 511
511 447
511 510
511 512
512 511
512 513
513 508
513 512
513 514
513 523
514 504
514 513
514 515
514 519
515 514
515 516
516 515
516 517
516 880
517 516
517 518
517 522
518 517
518 519
519 514
519 518
519 520
520 336
520 519
520 521
521 520
521 522
522 517
522 521
522 541
523 495
523 513
523 524
523 528
524 523
524 525
525 524
525 526
525 889
526 525
526 527
526 531
527 526
527 528
528 523
528 527
528 529
529 345
529 528
529 530
530 529
530 531
531 526
531 530
531 541
532 495
532 504
532 533
532 537
533 532
533 534
534 533
534 535
534 898
535 534
535 536
535 540
536 535
536 537
537 532
537 536
537 538
538 354
538 537
538 539
539 538
539 540
540 535
540 539
540 541
541 522
541 531
541 540
541 542
542 541
542 543
543 542
543 544
544 543
544 545
545 544
545 546
546 545
546 547
546 556
546 565
547 546
547 548
547 552
548 547
548 549
549 548
549 550
549 613
550 549
550 551
550 555
551 550
551 552
552 547
552 551
552 553
553 18
553 552
553 554
554 553
554 555
555 550
555 554
555 583
555 592
556 546
556 557
556 561
557 556
557 558
558 557
558 559
558 622
559 558
559 560
559 564
560 559
560 561
561 556
561 560
561 562
562 78
562 561
562 563
563 562
563 564
564 559
564 563
564 574
564 592
565 546
565 566
565 570
566 565
566 567
567 566
567 568
567 631
568 567
568 569
568 573
569 568
569 570
570 565
570 569
570 571
571 138
571 570
571 572
572 571
572 573
573 568
573 572
573 574
573 583
574 564
574 573
574 575
574 579
575 574
575 576
576 575
576 577
576 793
577 576
577 578
577 582
578 577
578 579
579 574
579 578
579 580
580 30
580 579
580 581
581 580
581 582
582 577
582 581
582 601
583 555
583 573
583 584
583 588
584 583
584 585
585 584
585 586
585 802
586 585
586 587
586 591
587 586
587 588
588 583
588 587
588 589
589 90
589 588
589 590
590 589
590 591
591 586
591 590
591 601
592 555
592 564
592 593
592 597
593 592
593 594
594 593
594 595
594 811
595 594
595 596
595 600
596 595
596 597
597 592
597 596
597 598
598 150
598 597
598 599
599 598
599 600
600 595
600 599
600 601
601 582
601 591
601 600
601 602
602 601
602 603
603 602
603 604
604 603
604 605
605 604
605 606
606 605
606 607
606 616
606 625
607 606
607 608
607 612
608 607
608 609
609 608
609 610
609 673
610 609
610 611
610 615
611 610
611 612
612 607
612 611
612 613
613 549
613 612
613 614
614 613
614 615
615 610
615 614
615 643
615 652
616 606
616 617
616 621
617 616
617 618
618 617
618 619
618 682
619 618
619 620
619 624
620 619
620 621
621 616
621 620
621 622
622 558
622 621
622 623
623 622
623 624
624 619
624 623
624 634
624 652
625 606
625 626
625 630
626 625
626 627
627 626
627 628
627 691
628 627
628 629
628 633
629 628
629 630
630 625
630 629
630 631
631 567
631 630
631 632
632 631
632 633
633 628
633 632
633 634
633 643
634 624
634 633
634 635
634 639
635 634
635 636
636 635
636 637
636 940
637 636
637 638
637 642
638 637
638 639
639 634
639 638
639 640
640 54
640 639
640 641
641 640
641 642
642 637
642 641
642 661
643 615
643 633
643 644
643 648
644 643
644 645
645 644
645 646
645 949
646 645
646 647
646 651
647 646
647 648
648 643
648 647
648 649
649 114
649 648
649 650
650 649
650 651
651 646
651 650
651 661
652 615
652 624
652 653
652 657
653 652
653 654
654 653
654 655
654 958
655 654
655 656
655 660
656 655
656 657
657 652
657 656
657 658
658 174
658 657
658 659
659 658
659 660
660 655
660 659
660 661
661 642
661 651
661 660
661 662
662 661
662 663
663 662
663 664
664 663
664 665
665 664
665 666
666 665
666 667
666 676
666 685
667 666
667 668
667 672
668 667
668 669
669 19
669 668
669 670
670 669
670 671
670 675
671 670
671 672
672 667
672 671
672 673
673 609
673 672
673 674
674 673
674 675
675 670
675 674
675 703
675 712
676 666
676 677
676 681
677 676
677 678
678 79
678 677
678 679
679 678
679 680
679 684
680 679
680 681
681 676
681 680
681 682
682 618
682 681
682 683
683 682
683 684
684 679
684 683
684 694
684 712
685 666
685 686
685 690
686 685
686 687
687 139
687 686
687 688
688 687
688 689
688 693
689 688
689 690
690 685
690 689
690 691
691 627
691 690
691 692
692 691
692 693
693 688
693 692
693 694
693 703
694 684
694 693
694 695
694 699
695 694
695 696
696 695
696 697
696 1000
697 696
697 698
697 702
698 697
698 699
699 694
699 698
699 700
700 60
700 699
700 701
701 700
701 702
702 697
702 701
702 721
703 675
703 693
703 704
703 708
704 703
704 705
705 704
705 706
705 1009
706 705
706 707
706 711
707 706
707 708
708 703
708 707
708 709
709 120
709 708
709 710
710 709
710 711
711 706
711 710
711 721
712 675
712 684
712 713
712 717
713 712
713 714
714 713
714 715
714 1018
715 714
715 716
715 720
716 715
716 717
717 712
717 716
717 718
718 180
718 717
718 719
719 718
719 720
720 715
720 719
720 721
721 702
721 711
721 720
721 722
722 721
722 723
723 722
723 724
724 723
724 725
725 724
725 726
726 725
726 727
726 736
726 745
727 726
727 728
727 732
728 727
728 729
729 25
729 728
729 730
730 729
730 731
730 735
731 730
731 732
732 727
732 731
732 733
733 396
733 732
733 734
734 733
734 735
735 730
735 734
735 763
735 772
736 726
736 737
736 741
737 736
737 738
738 85
738 737
738 739
739 738
739 740
739 744
740 739
740 741
741 736
741 740
741 742
742 405
742 741
742 743
743 742
743 744
744 739
744 743
744 754
744 772
745 726
745 746
745 750
746 745
746 747
747 145
747 746
747 748
748 747
748 749
748 753
749 748
749 750
750 745
750 749
750 751
751 414
751 750
751 752
752 751
752 753
753 748
753 752
753 754
753 763
754 744
754 753
754 755
754 759
755 754
755 756
756 755
756 757
756 973
757 756
757 758
757 762
758 757
758 759
759 754
759 758
759 760
760 456
760 759
760 761
761 760
761 762
762 757
762 761
762 781
763 735
763 753
763 764
763 768
764 763
764 765
765 764
765 766
765 982
766 765
766 767
766 771
767 766
767 768
768 763
768 767
768 769
769 465
769 768
769 770
770 769
770 771
771 766
771 770
771 781
772 735
772 744
772 773
772 777
773 772
773 774
774 773
774 775
774 991
775 774
775 776
775 780
776 775
776 777
777 772
777 776
777 778
778 474
778 777
778 779
779 778
779 780
780 775
780 779
780 781
781 762
781 771
781 780
781 782
782 781
782 783
783 782
783 784
784 783
784 785
785 784
785 786
786 785
786 787
786 796
786 805
787 786
787 788
787 792
788 787
788 789
789 788
789 790
789 853
790 789
790 791
790 795
791 790
791 792
792 787
792 791
792 793
793 576
793 792
793 794
794 793
794 795
795 790
795 794
795 823
795 832
796 786
796 797
796 801
797 796
797 798
798 797
798 799
798 862
799 798
799 800
799 804
800 799
800 801
801 796
801 800
801 802
802 585
802 801
802 803
803 802
803 804
804 799
804 803
804 814
804 832
805 786
805 806
805 810
806 805
806 807
807 806
807 808
807 871
808 807
808 809
808 813
809 808
809 810
810 805
810 809
810 811
811 594
811 810
811 812
812 811
812 813
813 808
813 812
813 814
813 823
814 804
814 813
814 815
814 819
815 814
815 816
816 815
816 817
816 913
817 816
817 818
817 822
818 817
818 819
819 814
819 818
819 820
820 276
820 819
820 821
821 820
821 822
822 817
822 821
822 841
823 795
823 813
823 824
823 828
824 823
824 825
825 824
825 826
825 922
826 825
826 827
826 831
827 826
827 828
828 823
828 827
828 829
829 285
829 828
829 830
830 829
830 831
831 826
831 830
831 841
832 795
832 804
832 833
832 837
833 832
833 834
834 833
834 835
834 931
835 834
835 836
835 840
836 835
836 837
837 832
837 836
837 838
838 294
838 837
838 839
839 838
839 840
840 835
840 839
840 841
841 822
841 831
841 840
841 842
842 841
842 843
843 842
843 844
844 843
844 845
845 844
845 846
846 845
846 847
846 856
846 865
847 846
847 848
847 852
848 847
848 849
849 31
849 848
849 850
850 849
850 851
850 855
851 850
851 852
852 847
852 851
852 853
853 789
853 852
853 854
854 853
854 855
855 850
855 854
855 883
855 892
856 846
856 857
856 861
857 856
857 858
858 91
858 857
858 859
859 858
859 860
859 864
860 859
860 861
861 856
861 860
861 862
862 798
862 861
862 863
863 862
863 864
864 859
864 863
864 874
864 892
865 846
865 866
865 870
866 865
866 867
867 151
867 866
867 868
868 867
868 869
868 873
869 868
869 870
870 865
870 869
870 871
871 807
871 870
871 872
872 871
872 873
873 868
873 872
873 874
873 883
874 864
874 873
874 875
874 879
875 874
875 876
876 49
876 875
876 877
877 876
877 878
877 882
878 877
878 879
879 874
879 878
879 880
880 516
880 879
880 881
881 880
881 882
882 877
882 881
882 901
883 855
883 873
883 884
883 888
884 883
884 885
885 109
885 884
885 886
886 885
886 887
886 891
887 886
887 888
888 883
888 887
888 889
889 525
889 888
889 890
890 889
890 891
891 886
891 890
891 901
892 855
892 864
892 893
892 897
893 892
893 894
894 169
894 893
894 895
895 894
895 896
895 900
896 895
896 897
897 892
897 896
897 898
898 534
898 897
898 899
899 898
899 900
900 895
900 899
900 901
901 882
901 891
901 900
901 902
902 901
902 903
903 902
903 904
904 903
904 905
905 904
905 906
906 905
906 907
906 916
906 925
907 906
907 908
907 912
908 907
908 909
909 37
909 908
909 910
910 909
910 911
910 915
911 910
911 912
912 907
912 911
912 913
913 816
913 912
913 914
914 913
914 915
915 910
915 914
915 943
915 952
916 906
916 917
916 921
917 916
917 918
918 97
918 917
918 919
919 918
919 920
919 924
920 919
920 921
921 916
921 920
921 922
922 825
922 921
922 923
923 922
923 924
924 919
924 923
924 934
924 952
925 906
925 926
925 930
926 925
926 927
927 157
927 926
927 928
928 927
928 929
928 933
929 928
929 930
930 925
930 929
930 931
931 834
931 930
931 932
932 931
932 933
933 928
933 932
933 934
933 943
934 924
934 933
934 935
934 939
935 934
935 936
936 935
936 937
936 1033
937 936
937 938
937 942
938 937
938 939
939 934
939 938
939 940
940 636
940 939
940 941
941 940
941 942
942 937
942 941
942 961
943 915
943 933
943 944
943 948
944 943
944 945
945 944
945 946
945 1042
946 945
946 947
946 951
947 946
947 948
948 943
948 947
948 949
949 645
949 948
949 950
950 949
950 951
951 946
951 950
951 961
952 915
952 924
952 953
952 957
953 952
953 954
954 953
954 955
954 1051
955 954
955 956
955 960
956 955
956 957
957 952
957 956
957 958
958 654
958 957
958 959
959 958
959 960
960 955
960 959
960 961
961 942
961 951
961 960
961 962
962 961
962 963
963 962
963 964
964 963
964 965
965 964
965 966
966 965
966 967
966 976
966 985
967 966
967 968
967 972
968 967
968 969
969 43
969 968
969 970
970 969
970 971
970 975
971 970
971 972
972 967
972 971
972 973
973 756
973 972
973 974
974 973
974 975
975 970
975 974
975 1003
975 1012
976 966
976 977
976 981
977 976
977 978
978 103
978 977
978 979
979 978
979 980
979 984
980 979
980 981
981 976
981 980
981 982
982 765
982 981
982 983
983 982
983 984
984 979
984 983
984 994
984 1012
985 966
985 986
985 990
986 985
986 987
987 163
987 986
987 988
988 987
988 989
988 993
989 988
989 990
990 985
990 989
990 991
991 774
991 990
991 992
992 991
992 993
993 988
993 992
993 994
993 1003
994 984
994 993
994 995
994 999
995 994
995 996
996 995
996 997
996 1060
997 996
997 998
997 1002
998 997
998 999
999 994
999 998
999 1000
1000 696
1000 999
1000 1001
1001 1000
1001 1002
1002 997
1002 1001
1002 1021
1003 975
1003 993
1003 1004
1003 1008
1004 1003
1004 1005
1005 1004
1005 1006
1005 1069
1006 1005
1006 1007
1006 1011
1007 1006
1007 1008
1008 1003
1008 1007
1008 1009
1009 705
1009 1008
1009 1010
1010 1009
1010 1011
1011 1006
1011 1010
1011 1021
1012 975
1012 984
1012 1013
1012 1017
1013 1012
1013 1014
1014 1013
1014 1015
1014 1078
1015 1014
1015 1016
1015 1020
1016 1015
1016 1017
1017 1012
1017 1016
1017 1018
1018 714
1018 1017
1018 1019
1019 1018
1019 1020
1020 1015
1020 1019
1020 1021
1021 1002
1021 1011
1021 1020
1021 1022
1022 1021
1022 1023
1023 1022
1023 1024
1024 1023
1024 1025
1025 1024
1025 1026
1026 1025
1026 1027
1026 1036
1026 1045
1027 1026
1027 1028
1027 1032
1028 1027
1028 1029
1029 55
1029 1028
1029 1030
1030 1029
1030 1031
1030 1035
1031 1030
1031 1032
1032 1027
1032 1031
1032 1033
1033 936
1033 1032
1033 1034
1034 1033
1034 1035
1035 1030
1035 1034
1035 1063
1035 1072
1036 1026
1036 1037
1036 1041
1037 1036
1037 1038
1038 115
1038 1037
1038 1039
1039 1038
1039 1040
1039 1044
1040 1039
1040 1041
1041 1036
1041 1040
1041 1042
1042 945
1042 1041
1042 1043
1043 1042
1043 1044
1044 1039
1044 1043
1044 1054
1044 1072
1045 1026
1045 1046
1045 1050
1046 1045
1046 1047
1047 175
1047 1046
1047 1048
1048 1047
1048 1049
1048 1053
1049 1048
1049 1050
1050 1045
1050 1049
1050 1051
1051 954
1051 1050
1051 1052
1052 1051
1052 1053
1053 1048
1053 1052
1053 1054
1053 1063
1054 1044
1054 1053
1054 1055
1054 1059
1055 1054
1055 1056
1056 61
1056 1055
1056 1057
1057 1056
1057 1058
1057 1062
1058 1057
1058 1059
1059 1054
1059 1058
1059 1060
1060 996
1060 1059
1060 1061
1061 1060
1061 1062
1062 1057
1062 1061
1062 1081
1063 1035
1063 1053
1063 1064
1063 1068
1064 1063
1064 1065
1065 121
1065 1064
1065 1066
1066 1065
1066 1067
1066 1071
1067 1066
1067 1068
1068 1063
1068 1067
1068 1069
1069 1005
1069 1068
1069 1070
1070 1069
1070 1071
1071 1066
1071 1070
1071 1081
1072 1035
1072 1044
1072 1073
1072 1077
1073 1072
1073 1074
1074 181
1074 1073
1074 1075
1075 1074
1075 1076
1075 1080
1076 1075
1076 1077
1077 1072
1077 1076
1077 1078
1078 1014
1078 1077
1078 1079
1079 1078
1079 1080
1080 1075
1080 1079
1080 1081
1081 1062
1081 1071
1081 1080
1081 1082
1082 1081
1082 1083
1083 1082
1083 1084
1084 1083
1084 1085
1085 1084
1085 1086
1086 1
1086 1085
-1
EOF